column=9;
row=9;
Board=[|0,0,0,0,0,9,0,1,6|0,0,0,0,0,3,8,0,9|9,0,0,1,0,0,0,4,0|0,5,6,9,0,7,0,0,1|7,8,0,0,1,0,9,3,2|1,0,0,0,0,0,0,0,7|0,0,0,0,9,0,7,0,0|0,0,0,0,0,0,0,0,3|0,0,7,0,0,5,0,0,0|];
horizontal=[|1,1,0,1,1,0,1,0|0,1,0,1,0,0,1,0|0,1,0,0,0,1,1,1|0,1,0,0,0,0,0,0|1,0,1,0,0,0,0,1|1,0,1,0,1,1,1,1|0,0,1,0,0,0,0,0|0,0,1,0,1,0,1,0|0,1,0,1,1,0,0,1|];
vertical=[|1,0,1,0,0,0,0,0,0|0,0,0,0,1,1,0,0,0|0,0,0,0,0,0,1,0,0|0,0,0,0,1,1,0,0,1|0,0,0,0,0,0,0,0,0|0,1,0,0,0,0,0,0,0|0,0,0,0,0,0,1,0,1|0,0,0,1,0,0,0,0,0|];
